Minimize
  - 27 y_0 - 19 y_1 - 25 y_2 - 3 y_3 - 13 y_4 - 17 y_5 - 18 y_6 - 28 y_7
   - 30 y_8 - 20 y_9 - 16 y_10 - 29 y_11 - 20 y_12 - 14 y_13 - 29 y_14
   - 14 y_15 - 34 y_16 - 11 y_17 - 16 y_18 - 13 y_19 - 19 y_20 - 26 y_21
   - 11 y_22 - 10 y_23 - 26 y_24 - 13 y_25 - 17 y_26 - 7 y_27 - 30 y_28
   - 5 y_29 - 26 y_30 - 27 y_31 - 13 y_32 - 18 y_33 - 23 y_34 - 20 y_35
   - 30 y_36 - 22 y_37 - 20 y_38 - 16 y_39 - 16 y_40 - 8 y_41 - 26 y_42
   - 20 y_43 - 24 y_44 - 28 y_45 - 30 y_46 - 22 y_47 - 9 y_48 - 18 y_49
   - 26 y_50 - 18 y_51 - 19 y_52 - 15 y_53 - 4 y_54 - 34 y_56 - 14 y_57
   - 19 y_58 - 22 y_59 - 21 y_60 - 8 y_61 - 26 y_62 - 27 y_63 - 7 y_64
   - 13 y_65 - 21 y_66 - 19 y_67 - 22 y_68 - 11 y_69 - 21 y_70 - 14 y_71
   - 28 y_72 - 21 y_73 - 22 y_74 - 16 y_75 - 17 y_76 - 27 y_77 - 30 y_78
   - 19 y_79 - 27 y_80 - 24 y_81 - 34 y_82 - 14 y_83 - 30 y_84 - 16 y_85
   - 25 y_86 - 23 y_87 - 36 y_88 - 17 y_89 - 26 y_90 - 28 y_91 - 20 y_92
   - 31 y_93 - 26 y_94 - 27 y_95 - 12 y_96 - 18 y_97 - 26 y_98 - 24 y_99
   + 2021 Constant
Subject To
 c_0: y_44 = 1
 c_1_0: y_0 + y_2 + y_16 + y_24 + y_42 + y_62 + y_84 + y_86 + y_90 + y_92
   + y_93 + y_95 >= 1
 c_1_1: y_1 + y_10 + y_19 + y_34 + y_38 + y_52 + y_53 + y_59 + y_67 + y_71
   + y_76 + y_97 >= 1
 c_1_2: y_0 + y_2 + y_16 + y_24 + y_36 + y_42 + y_62 + y_68 + y_84 + y_86
   + y_90 + y_92 + y_93 + y_94 + y_95 >= 1
 c_1_3: y_3 + y_27 + y_29 + y_41 + y_48 + y_54 + y_55 + y_61 + y_64 >= 1
 c_1_4: y_4 + y_13 + y_20 + y_39 + y_41 + y_48 + y_54 + y_57 + y_64 + y_65
   + y_66 + y_79 + y_85 + y_96 >= 1
 c_1_5: y_5 + y_9 + y_12 + y_15 + y_26 + y_32 + y_33 + y_35 + y_40 + y_49
   + y_51 + y_75 >= 1
 c_1_6: y_6 + y_12 + y_21 + y_33 + y_39 + y_44 + y_51 + y_74 + y_79 + y_96
   + y_98 + y_99 >= 1
 c_1_7: y_7 + y_8 + y_14 + y_35 + y_43 + y_46 + y_50 + y_56 + y_60 + y_81
   + y_82 + y_88 >= 1
 c_1_8: y_7 + y_8 + y_14 + y_81 + y_82 + y_88 >= 1
 c_1_9: y_5 + y_9 + y_12 + y_15 + y_26 + y_33 + y_40 + y_49 + y_51 + y_74
   + y_75 >= 1
 c_1_10: y_1 + y_10 + y_18 + y_19 + y_27 + y_34 + y_38 + y_47 + y_52 + y_53
   + y_59 + y_67 + y_71 + y_76 + y_97 >= 1
 c_1_11: y_11 + y_28 + y_31 + y_45 + y_77 + y_78 >= 1
 c_1_12: y_5 + y_6 + y_9 + y_12 + y_21 + y_26 + y_33 + y_40 + y_44 + y_49
   + y_51 + y_74 + y_75 + y_98 + y_99 >= 1
 c_1_13: y_4 + y_13 + y_20 + y_41 + y_48 + y_54 + y_57 + y_65 + y_66 + y_69
   + y_70 + y_73 + y_85 + y_89 >= 1
 c_1_14: y_7 + y_8 + y_14 + y_35 + y_46 + y_56 + y_60 + y_81 + y_82 + y_88
   >= 1
 c_1_15: y_5 + y_9 + y_15 + y_26 + y_32 + y_33 + y_35 + y_40 + y_49 + y_51
   + y_75 >= 1
 c_1_16: y_0 + y_2 + y_16 + y_24 + y_36 + y_42 + y_62 + y_84 + y_90 + y_93
   >= 1
 c_1_17: y_17 + y_22 + y_23 + y_25 + y_32 + y_53 + y_61 + y_83 >= 1
 c_1_18: y_10 + y_18 + y_27 + y_47 + y_58 + y_67 + y_69 + y_76 >= 1
 c_1_19: y_1 + y_10 + y_19 + y_27 + y_29 + y_38 + y_52 + y_53 + y_61 + y_67
   + y_71 + y_76 + y_97 >= 1
 c_1_20: y_4 + y_13 + y_20 + y_57 + y_65 + y_66 + y_70 + y_73 + y_85 + y_89
   >= 1
 c_1_21: y_6 + y_12 + y_21 + y_44 + y_72 + y_74 + y_80 + y_98 + y_99 >= 1
 c_1_22: y_17 + y_22 + y_23 + y_25 + y_32 + y_61 + y_83 >= 1
 c_1_23: y_17 + y_22 + y_23 + y_25 + y_32 + y_61 + y_83 >= 1
 c_1_24: y_0 + y_2 + y_16 + y_24 + y_42 + y_52 + y_62 + y_86 + y_92 + y_93
   + y_95 >= 1
 c_1_25: y_17 + y_22 + y_23 + y_25 + y_32 + y_37 + y_43 + y_61 + y_83 >= 1
 c_1_26: y_5 + y_9 + y_12 + y_15 + y_26 + y_33 + y_35 + y_40 + y_49 + y_51
   + y_74 + y_75 >= 1
 c_1_27: y_3 + y_10 + y_18 + y_19 + y_27 + y_29 + y_41 + y_54 + y_55 + y_61
   + y_69 + y_71 + y_76 >= 1
 c_1_28: y_11 + y_28 + y_31 + y_45 + y_77 + y_78 >= 1
 c_1_29: y_3 + y_19 + y_27 + y_29 + y_41 + y_54 + y_55 + y_61 + y_69 + y_71
   >= 1
 c_1_30: y_30 + y_37 + y_43 + y_46 + y_50 + y_63 + y_91 >= 1
 c_1_31: y_11 + y_28 + y_31 + y_45 + y_77 + y_78 >= 1
 c_1_32: y_5 + y_15 + y_17 + y_22 + y_23 + y_25 + y_32 + y_35 + y_43 + y_60
   + y_83 >= 1
 c_1_33: y_5 + y_6 + y_9 + y_12 + y_15 + y_26 + y_33 + y_40 + y_49 + y_51
   + y_74 + y_75 + y_98 >= 1
 c_1_34: y_1 + y_10 + y_34 + y_38 + y_52 + y_59 + y_67 + y_95 + y_97 >= 1
 c_1_35: y_5 + y_7 + y_14 + y_15 + y_26 + y_32 + y_35 + y_43 + y_49 + y_60
   + y_75 + y_81 >= 1
 c_1_36: y_2 + y_16 + y_36 + y_42 + y_62 + y_68 + y_84 + y_86 + y_90 + y_91
   + y_94 >= 1
 c_1_37: y_25 + y_30 + y_37 + y_43 + y_46 + y_50 + y_60 + y_63 + y_81 >= 1
 c_1_38: y_1 + y_10 + y_19 + y_34 + y_38 + y_47 + y_52 + y_59 + y_67 + y_71
   + y_76 + y_97 >= 1
 c_1_39: y_4 + y_6 + y_39 + y_44 + y_48 + y_64 + y_79 + y_85 + y_87 + y_96
   + y_99 >= 1
 c_1_40: y_5 + y_9 + y_12 + y_15 + y_26 + y_33 + y_40 + y_49 + y_51 + y_74
   + y_75 >= 1
 c_1_41: y_3 + y_4 + y_13 + y_27 + y_29 + y_41 + y_48 + y_54 + y_55 + y_57
   + y_64 + y_65 + y_69 + y_85 + y_89 >= 1
 c_1_42: y_0 + y_2 + y_16 + y_24 + y_36 + y_42 + y_62 + y_68 + y_84 + y_86
   + y_90 + y_92 + y_93 + y_94 + y_95 >= 1
 c_1_43: y_7 + y_25 + y_30 + y_32 + y_35 + y_37 + y_43 + y_46 + y_50 + y_60
   + y_81 >= 1
 c_1_44: y_6 + y_12 + y_21 + y_39 + y_44 + y_72 + y_74 + y_79 + y_80 + y_87
   + y_98 + y_99 >= 1
 c_1_45: y_11 + y_28 + y_31 + y_45 + y_77 + y_78 >= 1
 c_1_46: y_7 + y_14 + y_30 + y_37 + y_43 + y_46 + y_50 + y_56 + y_60 + y_63
   + y_81 + y_82 >= 1
 c_1_47: y_10 + y_18 + y_38 + y_47 + y_58 + y_59 + y_67 + y_76 >= 1
 c_1_48: y_3 + y_4 + y_13 + y_39 + y_41 + y_48 + y_54 + y_55 + y_64 + y_65
   + y_85 + y_96 >= 1
 c_1_49: y_5 + y_9 + y_12 + y_15 + y_26 + y_33 + y_35 + y_40 + y_49 + y_51
   + y_74 + y_75 >= 1
 c_1_50: y_7 + y_30 + y_37 + y_43 + y_46 + y_50 + y_60 + y_63 + y_81 + y_91
   >= 1
 c_1_51: y_5 + y_6 + y_9 + y_12 + y_15 + y_26 + y_33 + y_40 + y_49 + y_51
   + y_74 + y_75 + y_98 >= 1
 c_1_52: y_1 + y_10 + y_19 + y_24 + y_34 + y_38 + y_52 + y_53 + y_59 + y_67
   + y_71 + y_95 + y_97 >= 1
 c_1_53: y_1 + y_10 + y_17 + y_19 + y_52 + y_53 + y_61 + y_71 + y_92 + y_97
   >= 1
 c_1_54: y_3 + y_4 + y_13 + y_27 + y_29 + y_41 + y_48 + y_54 + y_55 + y_64
   + y_65 + y_69 >= 1
 c_1_55: y_3 + y_27 + y_29 + y_41 + y_48 + y_54 + y_55 + y_61 + y_64 >= 1
 c_1_56: y_7 + y_14 + y_46 + y_56 + y_81 + y_82 + y_88 >= 1
 c_1_57: y_4 + y_13 + y_20 + y_41 + y_57 + y_65 + y_69 + y_70 + y_73 + y_85
   + y_89 >= 1
 c_1_58: y_18 + y_47 + y_58 + y_67 + y_69 + y_76 + y_77 >= 1
 c_1_59: y_1 + y_10 + y_34 + y_38 + y_47 + y_52 + y_59 + y_67 + y_76 + y_97
   >= 1
 c_1_60: y_7 + y_14 + y_32 + y_35 + y_37 + y_43 + y_46 + y_50 + y_60 + y_81
   >= 1
 c_1_61: y_3 + y_17 + y_19 + y_22 + y_23 + y_25 + y_27 + y_29 + y_53 + y_55
   + y_61 + y_71 + y_83 >= 1
 c_1_62: y_0 + y_2 + y_16 + y_24 + y_36 + y_42 + y_62 + y_68 + y_84 + y_86
   + y_90 + y_92 + y_93 + y_94 + y_95 >= 1
 c_1_63: y_30 + y_37 + y_46 + y_50 + y_63 + y_91 >= 1
 c_1_64: y_3 + y_4 + y_39 + y_41 + y_48 + y_54 + y_55 + y_64 + y_96 >= 1
 c_1_65: y_4 + y_13 + y_20 + y_41 + y_48 + y_54 + y_57 + y_65 + y_66 + y_69
   + y_70 + y_73 + y_85 + y_89 >= 1
 c_1_66: y_4 + y_13 + y_20 + y_65 + y_66 + y_70 + y_73 + y_85 + y_87 >= 1
 c_1_67: y_1 + y_10 + y_18 + y_19 + y_34 + y_38 + y_47 + y_52 + y_58 + y_59
   + y_67 + y_71 + y_76 + y_97 >= 1
 c_1_68: y_2 + y_36 + y_42 + y_62 + y_68 + y_83 + y_84 + y_86 + y_90 + y_92
   + y_94 >= 1
 c_1_69: y_13 + y_18 + y_27 + y_29 + y_41 + y_54 + y_57 + y_58 + y_65
   + y_69 + y_76 + y_89 >= 1
 c_1_70: y_13 + y_20 + y_57 + y_65 + y_66 + y_70 + y_73 + y_85 + y_89 >= 1
 c_1_71: y_1 + y_10 + y_19 + y_27 + y_29 + y_38 + y_52 + y_53 + y_61 + y_67
   + y_71 + y_97 >= 1
 c_1_72: y_21 + y_44 + y_72 + y_79 + y_80 + y_87 + y_99 >= 1
 c_1_73: y_13 + y_20 + y_57 + y_65 + y_66 + y_70 + y_73 + y_85 + y_89 >= 1
 c_1_74: y_6 + y_9 + y_12 + y_21 + y_26 + y_33 + y_40 + y_44 + y_49 + y_51
   + y_74 + y_75 + y_98 + y_99 >= 1
 c_1_75: y_5 + y_9 + y_12 + y_15 + y_26 + y_33 + y_35 + y_40 + y_49 + y_51
   + y_74 + y_75 >= 1
 c_1_76: y_1 + y_10 + y_18 + y_19 + y_27 + y_38 + y_47 + y_58 + y_59 + y_67
   + y_69 + y_76 + y_97 >= 1
 c_1_77: y_11 + y_28 + y_31 + y_45 + y_58 + y_77 + y_78 >= 1
 c_1_78: y_11 + y_28 + y_31 + y_45 + y_77 + y_78 >= 1
 c_1_79: y_4 + y_6 + y_39 + y_44 + y_72 + y_79 + y_80 + y_87 + y_96 + y_99
   >= 1
 c_1_80: y_21 + y_44 + y_72 + y_79 + y_80 + y_87 + y_99 >= 1
 c_1_81: y_7 + y_8 + y_14 + y_35 + y_37 + y_43 + y_46 + y_50 + y_56 + y_60
   + y_81 + y_82 >= 1
 c_1_82: y_7 + y_8 + y_14 + y_46 + y_56 + y_81 + y_82 + y_88 >= 1
 c_1_83: y_17 + y_22 + y_23 + y_25 + y_32 + y_61 + y_68 + y_83 + y_92 >= 1
 c_1_84: y_0 + y_2 + y_16 + y_36 + y_42 + y_62 + y_68 + y_84 + y_86 + y_90
   + y_93 + y_94 >= 1
 c_1_85: y_4 + y_13 + y_20 + y_39 + y_41 + y_48 + y_57 + y_65 + y_66 + y_70
   + y_73 + y_85 + y_87 + y_89 >= 1
 c_1_86: y_0 + y_2 + y_24 + y_36 + y_42 + y_62 + y_68 + y_84 + y_86 + y_90
   + y_92 + y_93 + y_94 >= 1
 c_1_87: y_39 + y_44 + y_66 + y_72 + y_79 + y_80 + y_85 + y_87 + y_99 >= 1
 c_1_88: y_7 + y_8 + y_14 + y_56 + y_82 + y_88 >= 1
 c_1_89: y_13 + y_20 + y_41 + y_57 + y_65 + y_69 + y_70 + y_73 + y_85
   + y_89 >= 1
 c_1_90: y_0 + y_2 + y_16 + y_36 + y_42 + y_62 + y_68 + y_84 + y_86 + y_90
   + y_92 + y_93 + y_94 >= 1
 c_1_91: y_30 + y_36 + y_50 + y_63 + y_91 + y_94 >= 1
 c_1_92: y_0 + y_2 + y_24 + y_42 + y_53 + y_62 + y_68 + y_83 + y_86 + y_90
   + y_92 + y_94 >= 1
 c_1_93: y_0 + y_2 + y_16 + y_24 + y_42 + y_62 + y_84 + y_86 + y_90 + y_93
   + y_95 >= 1
 c_1_94: y_2 + y_36 + y_42 + y_62 + y_68 + y_84 + y_86 + y_90 + y_91 + y_92
   + y_94 >= 1
 c_1_95: y_0 + y_2 + y_24 + y_34 + y_42 + y_52 + y_62 + y_93 + y_95 >= 1
 c_1_96: y_4 + y_6 + y_39 + y_48 + y_64 + y_79 + y_96 >= 1
 c_1_97: y_1 + y_10 + y_19 + y_34 + y_38 + y_52 + y_53 + y_59 + y_67 + y_71
   + y_76 + y_97 >= 1
 c_1_98: y_6 + y_12 + y_21 + y_33 + y_44 + y_51 + y_74 + y_98 + y_99 >= 1
 c_1_99: y_6 + y_12 + y_21 + y_39 + y_44 + y_72 + y_74 + y_79 + y_80 + y_87
   + y_98 + y_99 >= 1
Bounds
 Constant = 1
Binaries
 y_0 y_1 y_2 y_3 y_4 y_5 y_6 y_7 y_8 y_9 y_10 y_11 y_12 y_13 y_14 y_15 y_16
 y_17 y_18 y_19 y_20 y_21 y_22 y_23 y_24 y_25 y_26 y_27 y_28 y_29 y_30 y_31
 y_32 y_33 y_34 y_35 y_36 y_37 y_38 y_39 y_40 y_41 y_42 y_43 y_44 y_45 y_46
 y_47 y_48 y_49 y_50 y_51 y_52 y_53 y_54 y_55 y_56 y_57 y_58 y_59 y_60 y_61
 y_62 y_63 y_64 y_65 y_66 y_67 y_68 y_69 y_70 y_71 y_72 y_73 y_74 y_75 y_76
 y_77 y_78 y_79 y_80 y_81 y_82 y_83 y_84 y_85 y_86 y_87 y_88 y_89 y_90 y_91
 y_92 y_93 y_94 y_95 y_96 y_97 y_98 y_99
End
